Nb of jobs, Nb of Machines, Time seed, Machine seed, Upper bound, Lower bound
10,5,-1,-1,-1,-1
Times
35,39,11,52,79
37,4,70,18,64
11,4,3,45,82
52,6,70,67,29
33,91,77,22,32
66,63,63,95,66
41,3,45,74,70
61,20,76,57,50
95,74,46,13,84
44,63,57,23,15
Machines
5,3,1,4,2
3,4,5,2,1
4,2,1,5,3
5,4,3,2,1
2,4,3,5,1
5,1,2,3,4
5,2,3,1,4
3,5,1,2,4
4,2,3,1,5
5,4,1,2,3
